n = 29;
lu = [|-683, -404
      |-545, -221
      |-354, 589
      |-792, 175
      |-763, 634
      |-636, -176
      |-165, 201
      |-725, 229
      |119, 573
      |-82, 390
      |-840, 269
      |705, 759
      |-583, 233
      |-822, 153
      |655, 742
      |-426, -252
      |-428, 72
      |-675, -157
      |-769, -594
      |-612, 235
      |-515, 649
      |-800, 57
      |-740, 42
      |-763, 296
      |-377, -118
      |-507, 117
      |-207, 650
      |-498, 167
      |253, 826|];
